Minimize
x_0 + x_1 + x_2 + x_3 + x_4 + x_5 + x_6 + x_7 + x_8 + x_9 + x_10 + x_11 + x_12 + x_13 + x_14 + x_15 + x_16 + x_17 + x_18 + x_19 + x_20 + x_21 + x_22 + x_23 + x_24 + x_25 + x_26 + x_27 + x_28 + x_29 + x_30 + x_31 + x_32 + x_33 + x_34 + x_35 + x_36 + x_37 + x_38 + x_39 + x_40 + x_41 + x_42 + x_43 + x_44 + x_45 + x_46 + x_47 + x_48 + x_49 + x_50 + x_51 + x_52 + x_53 + x_54 + x_55 + x_56 + x_57 + x_58 + x_59 + x_60 + x_61 + x_62 + x_63 + x_64 + x_65 + x_66 + x_67 + x_68 + x_69 + x_70 + x_71 + x_72 + x_73 + x_74 + x_75 + x_76 + x_77 + x_78 + x_79 + x_80 + x_81 + x_82 + x_83 + x_84 + x_85 + x_86 + x_87 + x_88 + x_89 + x_90 + x_91 + x_92 + x_93 + x_94 + x_95 + x_96 + x_97 + x_98 + x_99 + x_100 + x_101 + x_102 + x_103 + x_104 + x_105 + x_106 + x_107 + x_108 + x_109 + x_110 + x_111 + x_112 + x_113 + x_114 + x_115 + x_116 + x_117 + x_118 + x_119 + x_120 + x_121 + x_122 + x_123 + x_124 + x_125 + x_126 + x_127 + x_128 + x_129 + x_130 + x_131 + x_132 + x_133 + x_134 + x_135 + x_136 + x_137 + x_138 + x_139 + x_140 + x_141 + x_142 + x_143 + x_144 + x_145 + x_146 + x_147 + x_148 + x_149 + x_150 + x_151 + x_152 + x_153 + x_154 + x_155 + x_156 + x_157 + x_158 + x_159 + x_160 + x_161 + x_162 + x_163 + x_164 + x_165 + x_166 + x_167 + x_168 + x_169 + x_170 + x_171 + x_172 + x_173 + x_174 + x_175 + x_176 + x_177 + x_178 + x_179 + x_180 + x_181 + x_182 + x_183 + x_184 + x_185 + x_186 + x_187 + x_188 + x_189 + x_190 + x_191 + x_192 + x_193 + x_194 + x_195 + x_196 + x_197 + x_198 + x_199 + x_200 + x_201 + x_202 + x_203 + x_204 + x_205 + x_206 + x_207 + x_208 + x_209 + x_210 + x_211 + x_212 + x_213 + x_214 + x_215 + x_216 + x_217 + x_218 + x_219 + x_220 + x_221 + x_222 + x_223 + x_224 + x_225 + x_226 + x_227 + x_228 + x_229 + x_230 + x_231 + x_232 + x_233 + x_234 + x_235 + x_236 + x_237 + x_238 + x_239 + x_240 + x_241 + x_242 + x_243 + x_244 + x_245 + x_246 + x_247 + x_248 + x_249 + x_250 + x_251 + x_252 + x_253 + x_254 + x_255 + x_256 + x_257 + x_258 + x_259 + x_260 + x_261 + x_262 + x_263 + x_264 + x_265 + x_266 + x_267 + x_268 + x_269 + x_270 + x_271 + x_272 + x_273 + x_274 + x_275 + x_276 + x_277 + x_278 + x_279 + x_280 + x_281 + x_282 + x_283 + x_284 + x_285 + x_286 + x_287 + x_288 + x_289 + x_290 + x_291 + x_292 + x_293 + x_294 + x_295 + x_296 + x_297 + x_298 + x_299 + x_300 + x_301 + x_302 + x_303 + x_304 + x_305 + x_306 + x_307 + x_308 + x_309 + x_310 + x_311 + x_312 + x_313 + x_314 + x_315 + x_316 + x_317 + x_318 + x_319 

Subject To
x_0   +  x_64   +  x_1   +  x_65   +  x_2   +  x_66   +  x_3   +  x_67  - 5 d0 >= 0
 d0  - x_0 >= 0
 d0  - x_64 >= 0
 d0  - x_1 >= 0
 d0  - x_65 >= 0
 d0  - x_2 >= 0
 d0  - x_66 >= 0
 d0  - x_3 >= 0
 d0  - x_67 >= 0
x_4   +  x_68   +  x_5   +  x_69   +  x_6   +  x_70   +  x_7   +  x_71  - 5 d1 >= 0
 d1  - x_4 >= 0
 d1  - x_68 >= 0
 d1  - x_5 >= 0
 d1  - x_69 >= 0
 d1  - x_6 >= 0
 d1  - x_70 >= 0
 d1  - x_7 >= 0
 d1  - x_71 >= 0
x_8   +  x_72   +  x_9   +  x_73   +  x_10   +  x_74   +  x_11   +  x_75  - 5 d2 >= 0
 d2  - x_8 >= 0
 d2  - x_72 >= 0
 d2  - x_9 >= 0
 d2  - x_73 >= 0
 d2  - x_10 >= 0
 d2  - x_74 >= 0
 d2  - x_11 >= 0
 d2  - x_75 >= 0
x_12   +  x_76   +  x_13   +  x_77   +  x_14   +  x_78   +  x_15   +  x_79  - 5 d3 >= 0
 d3  - x_12 >= 0
 d3  - x_76 >= 0
 d3  - x_13 >= 0
 d3  - x_77 >= 0
 d3  - x_14 >= 0
 d3  - x_78 >= 0
 d3  - x_15 >= 0
 d3  - x_79 >= 0
x_16   +  x_80   +  x_17   +  x_81   +  x_18   +  x_82   +  x_19   +  x_83  - 5 d4 >= 0
 d4  - x_16 >= 0
 d4  - x_80 >= 0
 d4  - x_17 >= 0
 d4  - x_81 >= 0
 d4  - x_18 >= 0
 d4  - x_82 >= 0
 d4  - x_19 >= 0
 d4  - x_83 >= 0
x_20   +  x_84   +  x_21   +  x_85   +  x_22   +  x_86   +  x_23   +  x_87  - 5 d5 >= 0
 d5  - x_20 >= 0
 d5  - x_84 >= 0
 d5  - x_21 >= 0
 d5  - x_85 >= 0
 d5  - x_22 >= 0
 d5  - x_86 >= 0
 d5  - x_23 >= 0
 d5  - x_87 >= 0
x_24   +  x_88   +  x_25   +  x_89   +  x_26   +  x_90   +  x_27   +  x_91  - 5 d6 >= 0
 d6  - x_24 >= 0
 d6  - x_88 >= 0
 d6  - x_25 >= 0
 d6  - x_89 >= 0
 d6  - x_26 >= 0
 d6  - x_90 >= 0
 d6  - x_27 >= 0
 d6  - x_91 >= 0
x_28   +  x_92   +  x_29   +  x_93   +  x_30   +  x_94   +  x_31   +  x_95  - 5 d7 >= 0
 d7  - x_28 >= 0
 d7  - x_92 >= 0
 d7  - x_29 >= 0
 d7  - x_93 >= 0
 d7  - x_30 >= 0
 d7  - x_94 >= 0
 d7  - x_31 >= 0
 d7  - x_95 >= 0
x_32   +  x_96   +  x_33   +  x_97   +  x_34   +  x_98   +  x_35   +  x_99  - 5 d8 >= 0
 d8  - x_32 >= 0
 d8  - x_96 >= 0
 d8  - x_33 >= 0
 d8  - x_97 >= 0
 d8  - x_34 >= 0
 d8  - x_98 >= 0
 d8  - x_35 >= 0
 d8  - x_99 >= 0
x_36   +  x_100   +  x_37   +  x_101   +  x_38   +  x_102   +  x_39   +  x_103  - 5 d9 >= 0
 d9  - x_36 >= 0
 d9  - x_100 >= 0
 d9  - x_37 >= 0
 d9  - x_101 >= 0
 d9  - x_38 >= 0
 d9  - x_102 >= 0
 d9  - x_39 >= 0
 d9  - x_103 >= 0
x_40   +  x_104   +  x_41   +  x_105   +  x_42   +  x_106   +  x_43   +  x_107  - 5 d10 >= 0
 d10  - x_40 >= 0
 d10  - x_104 >= 0
 d10  - x_41 >= 0
 d10  - x_105 >= 0
 d10  - x_42 >= 0
 d10  - x_106 >= 0
 d10  - x_43 >= 0
 d10  - x_107 >= 0
x_44   +  x_108   +  x_45   +  x_109   +  x_46   +  x_110   +  x_47   +  x_111  - 5 d11 >= 0
 d11  - x_44 >= 0
 d11  - x_108 >= 0
 d11  - x_45 >= 0
 d11  - x_109 >= 0
 d11  - x_46 >= 0
 d11  - x_110 >= 0
 d11  - x_47 >= 0
 d11  - x_111 >= 0
x_48   +  x_112   +  x_49   +  x_113   +  x_50   +  x_114   +  x_51   +  x_115  - 5 d12 >= 0
 d12  - x_48 >= 0
 d12  - x_112 >= 0
 d12  - x_49 >= 0
 d12  - x_113 >= 0
 d12  - x_50 >= 0
 d12  - x_114 >= 0
 d12  - x_51 >= 0
 d12  - x_115 >= 0
x_52   +  x_116   +  x_53   +  x_117   +  x_54   +  x_118   +  x_55   +  x_119  - 5 d13 >= 0
 d13  - x_52 >= 0
 d13  - x_116 >= 0
 d13  - x_53 >= 0
 d13  - x_117 >= 0
 d13  - x_54 >= 0
 d13  - x_118 >= 0
 d13  - x_55 >= 0
 d13  - x_119 >= 0
x_56   +  x_120   +  x_57   +  x_121   +  x_58   +  x_122   +  x_59   +  x_123  - 5 d14 >= 0
 d14  - x_56 >= 0
 d14  - x_120 >= 0
 d14  - x_57 >= 0
 d14  - x_121 >= 0
 d14  - x_58 >= 0
 d14  - x_122 >= 0
 d14  - x_59 >= 0
 d14  - x_123 >= 0
x_60   +  x_124   +  x_61   +  x_125   +  x_62   +  x_126   +  x_63   +  x_127  - 5 d15 >= 0
 d15  - x_60 >= 0
 d15  - x_124 >= 0
 d15  - x_61 >= 0
 d15  - x_125 >= 0
 d15  - x_62 >= 0
 d15  - x_126 >= 0
 d15  - x_63 >= 0
 d15  - x_127 >= 0
x_64   +  x_128   +  x_77   +  x_129   +  x_74   +  x_130   +  x_71   +  x_131  - 5 d16 >= 0
 d16  - x_64 >= 0
 d16  - x_128 >= 0
 d16  - x_77 >= 0
 d16  - x_129 >= 0
 d16  - x_74 >= 0
 d16  - x_130 >= 0
 d16  - x_71 >= 0
 d16  - x_131 >= 0
x_68   +  x_132   +  x_65   +  x_133   +  x_78   +  x_134   +  x_75   +  x_135  - 5 d17 >= 0
 d17  - x_68 >= 0
 d17  - x_132 >= 0
 d17  - x_65 >= 0
 d17  - x_133 >= 0
 d17  - x_78 >= 0
 d17  - x_134 >= 0
 d17  - x_75 >= 0
 d17  - x_135 >= 0
x_72   +  x_136   +  x_69   +  x_137   +  x_66   +  x_138   +  x_79   +  x_139  - 5 d18 >= 0
 d18  - x_72 >= 0
 d18  - x_136 >= 0
 d18  - x_69 >= 0
 d18  - x_137 >= 0
 d18  - x_66 >= 0
 d18  - x_138 >= 0
 d18  - x_79 >= 0
 d18  - x_139 >= 0
x_76   +  x_140   +  x_73   +  x_141   +  x_70   +  x_142   +  x_67   +  x_143  - 5 d19 >= 0
 d19  - x_76 >= 0
 d19  - x_140 >= 0
 d19  - x_73 >= 0
 d19  - x_141 >= 0
 d19  - x_70 >= 0
 d19  - x_142 >= 0
 d19  - x_67 >= 0
 d19  - x_143 >= 0
x_80   +  x_144   +  x_93   +  x_145   +  x_90   +  x_146   +  x_87   +  x_147  - 5 d20 >= 0
 d20  - x_80 >= 0
 d20  - x_144 >= 0
 d20  - x_93 >= 0
 d20  - x_145 >= 0
 d20  - x_90 >= 0
 d20  - x_146 >= 0
 d20  - x_87 >= 0
 d20  - x_147 >= 0
x_84   +  x_148   +  x_81   +  x_149   +  x_94   +  x_150   +  x_91   +  x_151  - 5 d21 >= 0
 d21  - x_84 >= 0
 d21  - x_148 >= 0
 d21  - x_81 >= 0
 d21  - x_149 >= 0
 d21  - x_94 >= 0
 d21  - x_150 >= 0
 d21  - x_91 >= 0
 d21  - x_151 >= 0
x_88   +  x_152   +  x_85   +  x_153   +  x_82   +  x_154   +  x_95   +  x_155  - 5 d22 >= 0
 d22  - x_88 >= 0
 d22  - x_152 >= 0
 d22  - x_85 >= 0
 d22  - x_153 >= 0
 d22  - x_82 >= 0
 d22  - x_154 >= 0
 d22  - x_95 >= 0
 d22  - x_155 >= 0
x_92   +  x_156   +  x_89   +  x_157   +  x_86   +  x_158   +  x_83   +  x_159  - 5 d23 >= 0
 d23  - x_92 >= 0
 d23  - x_156 >= 0
 d23  - x_89 >= 0
 d23  - x_157 >= 0
 d23  - x_86 >= 0
 d23  - x_158 >= 0
 d23  - x_83 >= 0
 d23  - x_159 >= 0
x_96   +  x_160   +  x_109   +  x_161   +  x_106   +  x_162   +  x_103   +  x_163  - 5 d24 >= 0
 d24  - x_96 >= 0
 d24  - x_160 >= 0
 d24  - x_109 >= 0
 d24  - x_161 >= 0
 d24  - x_106 >= 0
 d24  - x_162 >= 0
 d24  - x_103 >= 0
 d24  - x_163 >= 0
x_100   +  x_164   +  x_97   +  x_165   +  x_110   +  x_166   +  x_107   +  x_167  - 5 d25 >= 0
 d25  - x_100 >= 0
 d25  - x_164 >= 0
 d25  - x_97 >= 0
 d25  - x_165 >= 0
 d25  - x_110 >= 0
 d25  - x_166 >= 0
 d25  - x_107 >= 0
 d25  - x_167 >= 0
x_104   +  x_168   +  x_101   +  x_169   +  x_98   +  x_170   +  x_111   +  x_171  - 5 d26 >= 0
 d26  - x_104 >= 0
 d26  - x_168 >= 0
 d26  - x_101 >= 0
 d26  - x_169 >= 0
 d26  - x_98 >= 0
 d26  - x_170 >= 0
 d26  - x_111 >= 0
 d26  - x_171 >= 0
x_108   +  x_172   +  x_105   +  x_173   +  x_102   +  x_174   +  x_99   +  x_175  - 5 d27 >= 0
 d27  - x_108 >= 0
 d27  - x_172 >= 0
 d27  - x_105 >= 0
 d27  - x_173 >= 0
 d27  - x_102 >= 0
 d27  - x_174 >= 0
 d27  - x_99 >= 0
 d27  - x_175 >= 0
x_112   +  x_176   +  x_125   +  x_177   +  x_122   +  x_178   +  x_119   +  x_179  - 5 d28 >= 0
 d28  - x_112 >= 0
 d28  - x_176 >= 0
 d28  - x_125 >= 0
 d28  - x_177 >= 0
 d28  - x_122 >= 0
 d28  - x_178 >= 0
 d28  - x_119 >= 0
 d28  - x_179 >= 0
x_116   +  x_180   +  x_113   +  x_181   +  x_126   +  x_182   +  x_123   +  x_183  - 5 d29 >= 0
 d29  - x_116 >= 0
 d29  - x_180 >= 0
 d29  - x_113 >= 0
 d29  - x_181 >= 0
 d29  - x_126 >= 0
 d29  - x_182 >= 0
 d29  - x_123 >= 0
 d29  - x_183 >= 0
x_120   +  x_184   +  x_117   +  x_185   +  x_114   +  x_186   +  x_127   +  x_187  - 5 d30 >= 0
 d30  - x_120 >= 0
 d30  - x_184 >= 0
 d30  - x_117 >= 0
 d30  - x_185 >= 0
 d30  - x_114 >= 0
 d30  - x_186 >= 0
 d30  - x_127 >= 0
 d30  - x_187 >= 0
x_124   +  x_188   +  x_121   +  x_189   +  x_118   +  x_190   +  x_115   +  x_191  - 5 d31 >= 0
 d31  - x_124 >= 0
 d31  - x_188 >= 0
 d31  - x_121 >= 0
 d31  - x_189 >= 0
 d31  - x_118 >= 0
 d31  - x_190 >= 0
 d31  - x_115 >= 0
 d31  - x_191 >= 0
x_128   +  x_192   +  x_129   +  x_193   +  x_130   +  x_194   +  x_131   +  x_195  - 5 d32 >= 0
 d32  - x_128 >= 0
 d32  - x_192 >= 0
 d32  - x_129 >= 0
 d32  - x_193 >= 0
 d32  - x_130 >= 0
 d32  - x_194 >= 0
 d32  - x_131 >= 0
 d32  - x_195 >= 0
x_132   +  x_196   +  x_133   +  x_197   +  x_134   +  x_198   +  x_135   +  x_199  - 5 d33 >= 0
 d33  - x_132 >= 0
 d33  - x_196 >= 0
 d33  - x_133 >= 0
 d33  - x_197 >= 0
 d33  - x_134 >= 0
 d33  - x_198 >= 0
 d33  - x_135 >= 0
 d33  - x_199 >= 0
x_136   +  x_200   +  x_137   +  x_201   +  x_138   +  x_202   +  x_139   +  x_203  - 5 d34 >= 0
 d34  - x_136 >= 0
 d34  - x_200 >= 0
 d34  - x_137 >= 0
 d34  - x_201 >= 0
 d34  - x_138 >= 0
 d34  - x_202 >= 0
 d34  - x_139 >= 0
 d34  - x_203 >= 0
x_140   +  x_204   +  x_141   +  x_205   +  x_142   +  x_206   +  x_143   +  x_207  - 5 d35 >= 0
 d35  - x_140 >= 0
 d35  - x_204 >= 0
 d35  - x_141 >= 0
 d35  - x_205 >= 0
 d35  - x_142 >= 0
 d35  - x_206 >= 0
 d35  - x_143 >= 0
 d35  - x_207 >= 0
x_144   +  x_208   +  x_145   +  x_209   +  x_146   +  x_210   +  x_147   +  x_211  - 5 d36 >= 0
 d36  - x_144 >= 0
 d36  - x_208 >= 0
 d36  - x_145 >= 0
 d36  - x_209 >= 0
 d36  - x_146 >= 0
 d36  - x_210 >= 0
 d36  - x_147 >= 0
 d36  - x_211 >= 0
x_148   +  x_212   +  x_149   +  x_213   +  x_150   +  x_214   +  x_151   +  x_215  - 5 d37 >= 0
 d37  - x_148 >= 0
 d37  - x_212 >= 0
 d37  - x_149 >= 0
 d37  - x_213 >= 0
 d37  - x_150 >= 0
 d37  - x_214 >= 0
 d37  - x_151 >= 0
 d37  - x_215 >= 0
x_152   +  x_216   +  x_153   +  x_217   +  x_154   +  x_218   +  x_155   +  x_219  - 5 d38 >= 0
 d38  - x_152 >= 0
 d38  - x_216 >= 0
 d38  - x_153 >= 0
 d38  - x_217 >= 0
 d38  - x_154 >= 0
 d38  - x_218 >= 0
 d38  - x_155 >= 0
 d38  - x_219 >= 0
x_156   +  x_220   +  x_157   +  x_221   +  x_158   +  x_222   +  x_159   +  x_223  - 5 d39 >= 0
 d39  - x_156 >= 0
 d39  - x_220 >= 0
 d39  - x_157 >= 0
 d39  - x_221 >= 0
 d39  - x_158 >= 0
 d39  - x_222 >= 0
 d39  - x_159 >= 0
 d39  - x_223 >= 0
x_160   +  x_224   +  x_161   +  x_225   +  x_162   +  x_226   +  x_163   +  x_227  - 5 d40 >= 0
 d40  - x_160 >= 0
 d40  - x_224 >= 0
 d40  - x_161 >= 0
 d40  - x_225 >= 0
 d40  - x_162 >= 0
 d40  - x_226 >= 0
 d40  - x_163 >= 0
 d40  - x_227 >= 0
x_164   +  x_228   +  x_165   +  x_229   +  x_166   +  x_230   +  x_167   +  x_231  - 5 d41 >= 0
 d41  - x_164 >= 0
 d41  - x_228 >= 0
 d41  - x_165 >= 0
 d41  - x_229 >= 0
 d41  - x_166 >= 0
 d41  - x_230 >= 0
 d41  - x_167 >= 0
 d41  - x_231 >= 0
x_168   +  x_232   +  x_169   +  x_233   +  x_170   +  x_234   +  x_171   +  x_235  - 5 d42 >= 0
 d42  - x_168 >= 0
 d42  - x_232 >= 0
 d42  - x_169 >= 0
 d42  - x_233 >= 0
 d42  - x_170 >= 0
 d42  - x_234 >= 0
 d42  - x_171 >= 0
 d42  - x_235 >= 0
x_172   +  x_236   +  x_173   +  x_237   +  x_174   +  x_238   +  x_175   +  x_239  - 5 d43 >= 0
 d43  - x_172 >= 0
 d43  - x_236 >= 0
 d43  - x_173 >= 0
 d43  - x_237 >= 0
 d43  - x_174 >= 0
 d43  - x_238 >= 0
 d43  - x_175 >= 0
 d43  - x_239 >= 0
x_176   +  x_240   +  x_177   +  x_241   +  x_178   +  x_242   +  x_179   +  x_243  - 5 d44 >= 0
 d44  - x_176 >= 0
 d44  - x_240 >= 0
 d44  - x_177 >= 0
 d44  - x_241 >= 0
 d44  - x_178 >= 0
 d44  - x_242 >= 0
 d44  - x_179 >= 0
 d44  - x_243 >= 0
x_180   +  x_244   +  x_181   +  x_245   +  x_182   +  x_246   +  x_183   +  x_247  - 5 d45 >= 0
 d45  - x_180 >= 0
 d45  - x_244 >= 0
 d45  - x_181 >= 0
 d45  - x_245 >= 0
 d45  - x_182 >= 0
 d45  - x_246 >= 0
 d45  - x_183 >= 0
 d45  - x_247 >= 0
x_184   +  x_248   +  x_185   +  x_249   +  x_186   +  x_250   +  x_187   +  x_251  - 5 d46 >= 0
 d46  - x_184 >= 0
 d46  - x_248 >= 0
 d46  - x_185 >= 0
 d46  - x_249 >= 0
 d46  - x_186 >= 0
 d46  - x_250 >= 0
 d46  - x_187 >= 0
 d46  - x_251 >= 0
x_188   +  x_252   +  x_189   +  x_253   +  x_190   +  x_254   +  x_191   +  x_255  - 5 d47 >= 0
 d47  - x_188 >= 0
 d47  - x_252 >= 0
 d47  - x_189 >= 0
 d47  - x_253 >= 0
 d47  - x_190 >= 0
 d47  - x_254 >= 0
 d47  - x_191 >= 0
 d47  - x_255 >= 0
x_192   +  x_256   +  x_241   +  x_257   +  x_226   +  x_258   +  x_211   +  x_259  - 5 d48 >= 0
 d48  - x_192 >= 0
 d48  - x_256 >= 0
 d48  - x_241 >= 0
 d48  - x_257 >= 0
 d48  - x_226 >= 0
 d48  - x_258 >= 0
 d48  - x_211 >= 0
 d48  - x_259 >= 0
x_196   +  x_260   +  x_245   +  x_261   +  x_230   +  x_262   +  x_215   +  x_263  - 5 d49 >= 0
 d49  - x_196 >= 0
 d49  - x_260 >= 0
 d49  - x_245 >= 0
 d49  - x_261 >= 0
 d49  - x_230 >= 0
 d49  - x_262 >= 0
 d49  - x_215 >= 0
 d49  - x_263 >= 0
x_200   +  x_264   +  x_249   +  x_265   +  x_234   +  x_266   +  x_219   +  x_267  - 5 d50 >= 0
 d50  - x_200 >= 0
 d50  - x_264 >= 0
 d50  - x_249 >= 0
 d50  - x_265 >= 0
 d50  - x_234 >= 0
 d50  - x_266 >= 0
 d50  - x_219 >= 0
 d50  - x_267 >= 0
x_204   +  x_268   +  x_253   +  x_269   +  x_238   +  x_270   +  x_223   +  x_271  - 5 d51 >= 0
 d51  - x_204 >= 0
 d51  - x_268 >= 0
 d51  - x_253 >= 0
 d51  - x_269 >= 0
 d51  - x_238 >= 0
 d51  - x_270 >= 0
 d51  - x_223 >= 0
 d51  - x_271 >= 0
x_208   +  x_272   +  x_193   +  x_273   +  x_242   +  x_274   +  x_227   +  x_275  - 5 d52 >= 0
 d52  - x_208 >= 0
 d52  - x_272 >= 0
 d52  - x_193 >= 0
 d52  - x_273 >= 0
 d52  - x_242 >= 0
 d52  - x_274 >= 0
 d52  - x_227 >= 0
 d52  - x_275 >= 0
x_212   +  x_276   +  x_197   +  x_277   +  x_246   +  x_278   +  x_231   +  x_279  - 5 d53 >= 0
 d53  - x_212 >= 0
 d53  - x_276 >= 0
 d53  - x_197 >= 0
 d53  - x_277 >= 0
 d53  - x_246 >= 0
 d53  - x_278 >= 0
 d53  - x_231 >= 0
 d53  - x_279 >= 0
x_216   +  x_280   +  x_201   +  x_281   +  x_250   +  x_282   +  x_235   +  x_283  - 5 d54 >= 0
 d54  - x_216 >= 0
 d54  - x_280 >= 0
 d54  - x_201 >= 0
 d54  - x_281 >= 0
 d54  - x_250 >= 0
 d54  - x_282 >= 0
 d54  - x_235 >= 0
 d54  - x_283 >= 0
x_220   +  x_284   +  x_205   +  x_285   +  x_254   +  x_286   +  x_239   +  x_287  - 5 d55 >= 0
 d55  - x_220 >= 0
 d55  - x_284 >= 0
 d55  - x_205 >= 0
 d55  - x_285 >= 0
 d55  - x_254 >= 0
 d55  - x_286 >= 0
 d55  - x_239 >= 0
 d55  - x_287 >= 0
x_224   +  x_288   +  x_209   +  x_289   +  x_194   +  x_290   +  x_243   +  x_291  - 5 d56 >= 0
 d56  - x_224 >= 0
 d56  - x_288 >= 0
 d56  - x_209 >= 0
 d56  - x_289 >= 0
 d56  - x_194 >= 0
 d56  - x_290 >= 0
 d56  - x_243 >= 0
 d56  - x_291 >= 0
x_228   +  x_292   +  x_213   +  x_293   +  x_198   +  x_294   +  x_247   +  x_295  - 5 d57 >= 0
 d57  - x_228 >= 0
 d57  - x_292 >= 0
 d57  - x_213 >= 0
 d57  - x_293 >= 0
 d57  - x_198 >= 0
 d57  - x_294 >= 0
 d57  - x_247 >= 0
 d57  - x_295 >= 0
x_232   +  x_296   +  x_217   +  x_297   +  x_202   +  x_298   +  x_251   +  x_299  - 5 d58 >= 0
 d58  - x_232 >= 0
 d58  - x_296 >= 0
 d58  - x_217 >= 0
 d58  - x_297 >= 0
 d58  - x_202 >= 0
 d58  - x_298 >= 0
 d58  - x_251 >= 0
 d58  - x_299 >= 0
x_236   +  x_300   +  x_221   +  x_301   +  x_206   +  x_302   +  x_255   +  x_303  - 5 d59 >= 0
 d59  - x_236 >= 0
 d59  - x_300 >= 0
 d59  - x_221 >= 0
 d59  - x_301 >= 0
 d59  - x_206 >= 0
 d59  - x_302 >= 0
 d59  - x_255 >= 0
 d59  - x_303 >= 0
x_240   +  x_304   +  x_225   +  x_305   +  x_210   +  x_306   +  x_195   +  x_307  - 5 d60 >= 0
 d60  - x_240 >= 0
 d60  - x_304 >= 0
 d60  - x_225 >= 0
 d60  - x_305 >= 0
 d60  - x_210 >= 0
 d60  - x_306 >= 0
 d60  - x_195 >= 0
 d60  - x_307 >= 0
x_244   +  x_308   +  x_229   +  x_309   +  x_214   +  x_310   +  x_199   +  x_311  - 5 d61 >= 0
 d61  - x_244 >= 0
 d61  - x_308 >= 0
 d61  - x_229 >= 0
 d61  - x_309 >= 0
 d61  - x_214 >= 0
 d61  - x_310 >= 0
 d61  - x_199 >= 0
 d61  - x_311 >= 0
x_248   +  x_312   +  x_233   +  x_313   +  x_218   +  x_314   +  x_203   +  x_315  - 5 d62 >= 0
 d62  - x_248 >= 0
 d62  - x_312 >= 0
 d62  - x_233 >= 0
 d62  - x_313 >= 0
 d62  - x_218 >= 0
 d62  - x_314 >= 0
 d62  - x_203 >= 0
 d62  - x_315 >= 0
x_252   +  x_316   +  x_237   +  x_317   +  x_222   +  x_318   +  x_207   +  x_319  - 5 d63 >= 0
 d63  - x_252 >= 0
 d63  - x_316 >= 0
 d63  - x_237 >= 0
 d63  - x_317 >= 0
 d63  - x_222 >= 0
 d63  - x_318 >= 0
 d63  - x_207 >= 0
 d63  - x_319 >= 0
x_256   +  x_320   +  x_257   +  x_321   +  x_258   +  x_322   +  x_259   +  x_323  - 5 d64 >= 0
 d64  - x_256 >= 0
 d64  - x_320 >= 0
 d64  - x_257 >= 0
 d64  - x_321 >= 0
 d64  - x_258 >= 0
 d64  - x_322 >= 0
 d64  - x_259 >= 0
 d64  - x_323 >= 0
x_260   +  x_324   +  x_261   +  x_325   +  x_262   +  x_326   +  x_263   +  x_327  - 5 d65 >= 0
 d65  - x_260 >= 0
 d65  - x_324 >= 0
 d65  - x_261 >= 0
 d65  - x_325 >= 0
 d65  - x_262 >= 0
 d65  - x_326 >= 0
 d65  - x_263 >= 0
 d65  - x_327 >= 0
x_264   +  x_328   +  x_265   +  x_329   +  x_266   +  x_330   +  x_267   +  x_331  - 5 d66 >= 0
 d66  - x_264 >= 0
 d66  - x_328 >= 0
 d66  - x_265 >= 0
 d66  - x_329 >= 0
 d66  - x_266 >= 0
 d66  - x_330 >= 0
 d66  - x_267 >= 0
 d66  - x_331 >= 0
x_268   +  x_332   +  x_269   +  x_333   +  x_270   +  x_334   +  x_271   +  x_335  - 5 d67 >= 0
 d67  - x_268 >= 0
 d67  - x_332 >= 0
 d67  - x_269 >= 0
 d67  - x_333 >= 0
 d67  - x_270 >= 0
 d67  - x_334 >= 0
 d67  - x_271 >= 0
 d67  - x_335 >= 0
x_272   +  x_336   +  x_273   +  x_337   +  x_274   +  x_338   +  x_275   +  x_339  - 5 d68 >= 0
 d68  - x_272 >= 0
 d68  - x_336 >= 0
 d68  - x_273 >= 0
 d68  - x_337 >= 0
 d68  - x_274 >= 0
 d68  - x_338 >= 0
 d68  - x_275 >= 0
 d68  - x_339 >= 0
x_276   +  x_340   +  x_277   +  x_341   +  x_278   +  x_342   +  x_279   +  x_343  - 5 d69 >= 0
 d69  - x_276 >= 0
 d69  - x_340 >= 0
 d69  - x_277 >= 0
 d69  - x_341 >= 0
 d69  - x_278 >= 0
 d69  - x_342 >= 0
 d69  - x_279 >= 0
 d69  - x_343 >= 0
x_280   +  x_344   +  x_281   +  x_345   +  x_282   +  x_346   +  x_283   +  x_347  - 5 d70 >= 0
 d70  - x_280 >= 0
 d70  - x_344 >= 0
 d70  - x_281 >= 0
 d70  - x_345 >= 0
 d70  - x_282 >= 0
 d70  - x_346 >= 0
 d70  - x_283 >= 0
 d70  - x_347 >= 0
x_284   +  x_348   +  x_285   +  x_349   +  x_286   +  x_350   +  x_287   +  x_351  - 5 d71 >= 0
 d71  - x_284 >= 0
 d71  - x_348 >= 0
 d71  - x_285 >= 0
 d71  - x_349 >= 0
 d71  - x_286 >= 0
 d71  - x_350 >= 0
 d71  - x_287 >= 0
 d71  - x_351 >= 0
x_288   +  x_352   +  x_289   +  x_353   +  x_290   +  x_354   +  x_291   +  x_355  - 5 d72 >= 0
 d72  - x_288 >= 0
 d72  - x_352 >= 0
 d72  - x_289 >= 0
 d72  - x_353 >= 0
 d72  - x_290 >= 0
 d72  - x_354 >= 0
 d72  - x_291 >= 0
 d72  - x_355 >= 0
x_292   +  x_356   +  x_293   +  x_357   +  x_294   +  x_358   +  x_295   +  x_359  - 5 d73 >= 0
 d73  - x_292 >= 0
 d73  - x_356 >= 0
 d73  - x_293 >= 0
 d73  - x_357 >= 0
 d73  - x_294 >= 0
 d73  - x_358 >= 0
 d73  - x_295 >= 0
 d73  - x_359 >= 0
x_296   +  x_360   +  x_297   +  x_361   +  x_298   +  x_362   +  x_299   +  x_363  - 5 d74 >= 0
 d74  - x_296 >= 0
 d74  - x_360 >= 0
 d74  - x_297 >= 0
 d74  - x_361 >= 0
 d74  - x_298 >= 0
 d74  - x_362 >= 0
 d74  - x_299 >= 0
 d74  - x_363 >= 0
x_300   +  x_364   +  x_301   +  x_365   +  x_302   +  x_366   +  x_303   +  x_367  - 5 d75 >= 0
 d75  - x_300 >= 0
 d75  - x_364 >= 0
 d75  - x_301 >= 0
 d75  - x_365 >= 0
 d75  - x_302 >= 0
 d75  - x_366 >= 0
 d75  - x_303 >= 0
 d75  - x_367 >= 0
x_304   +  x_368   +  x_305   +  x_369   +  x_306   +  x_370   +  x_307   +  x_371  - 5 d76 >= 0
 d76  - x_304 >= 0
 d76  - x_368 >= 0
 d76  - x_305 >= 0
 d76  - x_369 >= 0
 d76  - x_306 >= 0
 d76  - x_370 >= 0
 d76  - x_307 >= 0
 d76  - x_371 >= 0
x_308   +  x_372   +  x_309   +  x_373   +  x_310   +  x_374   +  x_311   +  x_375  - 5 d77 >= 0
 d77  - x_308 >= 0
 d77  - x_372 >= 0
 d77  - x_309 >= 0
 d77  - x_373 >= 0
 d77  - x_310 >= 0
 d77  - x_374 >= 0
 d77  - x_311 >= 0
 d77  - x_375 >= 0
x_312   +  x_376   +  x_313   +  x_377   +  x_314   +  x_378   +  x_315   +  x_379  - 5 d78 >= 0
 d78  - x_312 >= 0
 d78  - x_376 >= 0
 d78  - x_313 >= 0
 d78  - x_377 >= 0
 d78  - x_314 >= 0
 d78  - x_378 >= 0
 d78  - x_315 >= 0
 d78  - x_379 >= 0
x_316   +  x_380   +  x_317   +  x_381   +  x_318   +  x_382   +  x_319   +  x_383  - 5 d79 >= 0
 d79  - x_316 >= 0
 d79  - x_380 >= 0
 d79  - x_317 >= 0
 d79  - x_381 >= 0
 d79  - x_318 >= 0
 d79  - x_382 >= 0
 d79  - x_319 >= 0
 d79  - x_383 >= 0



x_0 + x_1 + x_2 + x_3 + x_4 + x_5 + x_6 + x_7 + x_8 + x_9 + x_10 + x_11 + x_12 + x_13 + x_14 + x_15 + x_16 + x_17 + x_18 + x_19 + x_20 + x_21 + x_22 + x_23 + x_24 + x_25 + x_26 + x_27 + x_28 + x_29 + x_30 + x_31 + x_32 + x_33 + x_34 + x_35 + x_36 + x_37 + x_38 + x_39 + x_40 + x_41 + x_42 + x_43 + x_44 + x_45 + x_46 + x_47 + x_48 + x_49 + x_50 + x_51 + x_52 + x_53 + x_54 + x_55 + x_56 + x_57 + x_58 + x_59 + x_60 + x_61 + x_62 + x_63 + x_64 + x_65 + x_66 + x_67 + x_68 + x_69 + x_70 + x_71 + x_72 + x_73 + x_74 + x_75 + x_76 + x_77 + x_78 + x_79 + x_80 + x_81 + x_82 + x_83 + x_84 + x_85 + x_86 + x_87 + x_88 + x_89 + x_90 + x_91 + x_92 + x_93 + x_94 + x_95 + x_96 + x_97 + x_98 + x_99 + x_100 + x_101 + x_102 + x_103 + x_104 + x_105 + x_106 + x_107 + x_108 + x_109 + x_110 + x_111 + x_112 + x_113 + x_114 + x_115 + x_116 + x_117 + x_118 + x_119 + x_120 + x_121 + x_122 + x_123 + x_124 + x_125 + x_126 + x_127 + x_128 + x_129 + x_130 + x_131 + x_132 + x_133 + x_134 + x_135 + x_136 + x_137 + x_138 + x_139 + x_140 + x_141 + x_142 + x_143 + x_144 + x_145 + x_146 + x_147 + x_148 + x_149 + x_150 + x_151 + x_152 + x_153 + x_154 + x_155 + x_156 + x_157 + x_158 + x_159 + x_160 + x_161 + x_162 + x_163 + x_164 + x_165 + x_166 + x_167 + x_168 + x_169 + x_170 + x_171 + x_172 + x_173 + x_174 + x_175 + x_176 + x_177 + x_178 + x_179 + x_180 + x_181 + x_182 + x_183 + x_184 + x_185 + x_186 + x_187 + x_188 + x_189 + x_190 + x_191 + x_192 + x_193 + x_194 + x_195 + x_196 + x_197 + x_198 + x_199 + x_200 + x_201 + x_202 + x_203 + x_204 + x_205 + x_206 + x_207 + x_208 + x_209 + x_210 + x_211 + x_212 + x_213 + x_214 + x_215 + x_216 + x_217 + x_218 + x_219 + x_220 + x_221 + x_222 + x_223 + x_224 + x_225 + x_226 + x_227 + x_228 + x_229 + x_230 + x_231 + x_232 + x_233 + x_234 + x_235 + x_236 + x_237 + x_238 + x_239 + x_240 + x_241 + x_242 + x_243 + x_244 + x_245 + x_246 + x_247 + x_248 + x_249 + x_250 + x_251 + x_252 + x_253 + x_254 + x_255 + x_256 + x_257 + x_258 + x_259 + x_260 + x_261 + x_262 + x_263 + x_264 + x_265 + x_266 + x_267 + x_268 + x_269 + x_270 + x_271 + x_272 + x_273 + x_274 + x_275 + x_276 + x_277 + x_278 + x_279 + x_280 + x_281 + x_282 + x_283 + x_284 + x_285 + x_286 + x_287 + x_288 + x_289 + x_290 + x_291 + x_292 + x_293 + x_294 + x_295 + x_296 + x_297 + x_298 + x_299 + x_300 + x_301 + x_302 + x_303 + x_304 + x_305 + x_306 + x_307 + x_308 + x_309 + x_310 + x_311 + x_312 + x_313 + x_314 + x_315 + x_316 + x_317 + x_318 + x_319  >= 1 



Binary
x_0
x_1
x_2
x_3
x_4
x_5
x_6
x_7
x_8
x_9
x_10
x_11
x_12
x_13
x_14
x_15
x_16
x_17
x_18
x_19
x_20
x_21
x_22
x_23
x_24
x_25
x_26
x_27
x_28
x_29
x_30
x_31
x_32
x_33
x_34
x_35
x_36
x_37
x_38
x_39
x_40
x_41
x_42
x_43
x_44
x_45
x_46
x_47
x_48
x_49
x_50
x_51
x_52
x_53
x_54
x_55
x_56
x_57
x_58
x_59
x_60
x_61
x_62
x_63
x_64
x_65
x_66
x_67
x_68
x_69
x_70
x_71
x_72
x_73
x_74
x_75
x_76
x_77
x_78
x_79
x_80
x_81
x_82
x_83
x_84
x_85
x_86
x_87
x_88
x_89
x_90
x_91
x_92
x_93
x_94
x_95
x_96
x_97
x_98
x_99
x_100
x_101
x_102
x_103
x_104
x_105
x_106
x_107
x_108
x_109
x_110
x_111
x_112
x_113
x_114
x_115
x_116
x_117
x_118
x_119
x_120
x_121
x_122
x_123
x_124
x_125
x_126
x_127
x_128
x_129
x_130
x_131
x_132
x_133
x_134
x_135
x_136
x_137
x_138
x_139
x_140
x_141
x_142
x_143
x_144
x_145
x_146
x_147
x_148
x_149
x_150
x_151
x_152
x_153
x_154
x_155
x_156
x_157
x_158
x_159
x_160
x_161
x_162
x_163
x_164
x_165
x_166
x_167
x_168
x_169
x_170
x_171
x_172
x_173
x_174
x_175
x_176
x_177
x_178
x_179
x_180
x_181
x_182
x_183
x_184
x_185
x_186
x_187
x_188
x_189
x_190
x_191
x_192
x_193
x_194
x_195
x_196
x_197
x_198
x_199
x_200
x_201
x_202
x_203
x_204
x_205
x_206
x_207
x_208
x_209
x_210
x_211
x_212
x_213
x_214
x_215
x_216
x_217
x_218
x_219
x_220
x_221
x_222
x_223
x_224
x_225
x_226
x_227
x_228
x_229
x_230
x_231
x_232
x_233
x_234
x_235
x_236
x_237
x_238
x_239
x_240
x_241
x_242
x_243
x_244
x_245
x_246
x_247
x_248
x_249
x_250
x_251
x_252
x_253
x_254
x_255
x_256
x_257
x_258
x_259
x_260
x_261
x_262
x_263
x_264
x_265
x_266
x_267
x_268
x_269
x_270
x_271
x_272
x_273
x_274
x_275
x_276
x_277
x_278
x_279
x_280
x_281
x_282
x_283
x_284
x_285
x_286
x_287
x_288
x_289
x_290
x_291
x_292
x_293
x_294
x_295
x_296
x_297
x_298
x_299
x_300
x_301
x_302
x_303
x_304
x_305
x_306
x_307
x_308
x_309
x_310
x_311
x_312
x_313
x_314
x_315
x_316
x_317
x_318
x_319
x_320
x_321
x_322
x_323
x_324
x_325
x_326
x_327
x_328
x_329
x_330
x_331
x_332
x_333
x_334
x_335
x_336
x_337
x_338
x_339
x_340
x_341
x_342
x_343
x_344
x_345
x_346
x_347
x_348
x_349
x_350
x_351
x_352
x_353
x_354
x_355
x_356
x_357
x_358
x_359
x_360
x_361
x_362
x_363
x_364
x_365
x_366
x_367
x_368
x_369
x_370
x_371
x_372
x_373
x_374
x_375
x_376
x_377
x_378
x_379
x_380
x_381
x_382
x_383
d0
d1
d2
d3
d4
d5
d6
d7
d8
d9
d10
d11
d12
d13
d14
d15
d16
d17
d18
d19
d20
d21
d22
d23
d24
d25
d26
d27
d28
d29
d30
d31
d32
d33
d34
d35
d36
d37
d38
d39
d40
d41
d42
d43
d44
d45
d46
d47
d48
d49
d50
d51
d52
d53
d54
d55
d56
d57
d58
d59
d60
d61
d62
d63
d64
d65
d66
d67
d68
d69
d70
d71
d72
d73
d74
d75
d76
d77
d78
d79
End
